NAME          BLANK   
ROWS
 N  OBJROW
 L  R0000000
COLUMNS
    C0000000  OBJROW     -698.         R0000000  484.        
    C0000001  OBJROW     -74.          R0000000  623.        
    C0000002  OBJROW     -447.         R0000000  584.        
    C0000003  OBJROW     -79.          R0000000  913.        
    C0000004  OBJROW     -170.         R0000000  136.        
    C0000005  OBJROW     -51.          R0000000  897.        
    C0000006  OBJROW     -697.         R0000000  607.        
    C0000007  OBJROW     -418.         R0000000  11.         
    C0000008  OBJROW     -186.         R0000000  209.        
    C0000009  OBJROW     -216.         R0000000  377.        
    C0000010  OBJROW     -33.          R0000000  833.        
    C0000011  OBJROW     -345.         R0000000  153.        
    C0000012  OBJROW     -160.         R0000000  408.        
    C0000013  OBJROW     -641.         R0000000  849.        
    C0000014  OBJROW     -594.         R0000000  339.        
    C0000015  OBJROW     -928.         R0000000  963.        
    C0000016  OBJROW     -170.         R0000000  598.        
RHS
    RHS       R0000000  15344.      
BOUNDS
 BV BOUND     C0000000  1.          
 BV BOUND     C0000001  1.          
 BV BOUND     C0000002  1.          
 BV BOUND     C0000003  1.          
 BV BOUND     C0000004  1.          
 BV BOUND     C0000005  1.          
 BV BOUND     C0000006  1.          
 BV BOUND     C0000007  1.          
 BV BOUND     C0000008  1.          
 BV BOUND     C0000009  1.          
 BV BOUND     C0000010  1.          
 BV BOUND     C0000011  1.          
 BV BOUND     C0000012  1.          
 BV BOUND     C0000013  1.          
 BV BOUND     C0000014  1.          
 BV BOUND     C0000015  1.          
 BV BOUND     C0000016  1.          
ENDATA
